(set-logic ALL)
(declare-const z_random0_0 String)
(declare-const z_random0_1 String)
(declare-const z_random0_2 String)
(declare-const z_random0_3 String)
(declare-const z_random0_4 String)
(declare-const z_random0_5 String)
(declare-const z_random0_6 String)
(declare-const z_random0_7 String)
(declare-const z_random1_0 String)
(declare-const z_random1_1 String)
(declare-fun seed0_x () String)
(declare-fun seed1_x () String)
(assert (and (and (not (= (str.in_re (str.substr z_random0_4 0 (str.indexof z_random0_4 (str.++ "C" "C") (str.len seed0_x))) (re.++ (re.* re.allchar ) re.allchar  (re.* re.allchar ) (str.to_re (str.substr z_random0_5 0 (str.indexof z_random0_5 (str.++ "C" "C") (str.len (str.++ "C" "C"))))) (re.* re.allchar ) (str.to_re (str.substr z_random0_0 0 (str.indexof z_random0_0 seed1_x (str.len (str.++ "A" "C"))))) (re.* re.allchar ))) (str.in_re seed0_x (re.++ (re.* re.allchar ) re.allchar  (re.* re.allchar ) re.allchar  (re.* re.allchar ) (str.to_re (str.++ "C" (str.++ "C" (str.substr z_random0_6 0 (str.indexof z_random0_6 seed1_x (str.len (str.++ "A" "C"))))))) (re.* re.allchar ))))) (not (= (str.in_re seed0_x (re.++ (re.* re.allchar ) re.allchar  (re.* re.allchar ) (str.to_re (str.++ "C" (str.++ "A" (str.substr z_random1_1 0 (str.len (str.++ "C" "B")))))) (re.* re.allchar ) re.allchar  (re.* re.allchar ))) (str.in_re (str.substr z_random1_0 0 (str.len seed0_x)) (re.++ (re.* re.allchar ) re.allchar  (re.* re.allchar ) (str.to_re "C") (re.* re.allchar ) (str.to_re (str.++ "A" (str.substr z_random0_7 0 (str.indexof z_random0_7 (str.++ "C" "C") (str.len (str.++ "C" "B")))))) (re.* re.allchar )))))) (and (not (= (str.in_re (str.substr z_random0_3 (str.len (str.++ "C" "B")) (str.len seed1_x)) (re.++ (re.* re.allchar ) re.allchar  (re.* re.allchar ) (str.to_re (str.++ "B" (str.substr z_random0_4 (str.len seed0_x) (str.len (str.++ "C" "C"))))) (re.* re.allchar ) (str.to_re "C") (re.* re.allchar ))) (str.in_re (str.substr z_random1_0 (str.indexof z_random1_0 seed1_x (str.len seed0_x)) (str.len seed1_x)) (re.++ (re.* re.allchar ) re.allchar  (re.* re.allchar ) (str.to_re "B") (re.* re.allchar ) (str.to_re (str.++ "C" (str.substr z_random0_7 (str.len (str.++ "C" "B")) (str.len (str.++ "C" "C"))))) (re.* re.allchar ))))) (not (= (str.in_re (str.substr z_random1_1 (str.indexof z_random1_1 seed1_x (str.len (str.++ "C" "B"))) (str.len seed1_x)) (re.++ (re.* re.allchar ) re.allchar  (re.* re.allchar ) (str.to_re (str.++ "B" "C")) (re.* re.allchar ) (str.to_re (str.substr z_random0_5 (str.len (str.++ "C" "C")) (str.len (str.++ "C" "C")))) (re.* re.allchar ))) (str.in_re (str.substr z_random0_6 (str.len (str.++ "A" "C")) (str.len seed1_x)) (re.++ (re.* re.allchar ) re.allchar  (re.* re.allchar ) (str.to_re "B") (re.* re.allchar ) (str.to_re (str.++ "C" (str.++ "C" "C"))) (re.* re.allchar ))))))))
(check-sat)
(exit)